300
120 120
1 96 453
2 96 64
3 96 697
4 96 845
5 96 184
6 96 274
7 96 817
8 95 729
9 94 65
10 94 447
11 94 173
12 94 32
13 94 977
14 94 164
15 94 230
16 93 297
17 93 758
18 93 579
19 93 248
20 92 901
21 92 378
22 92 929
23 92 81
24 92 392
25 92 487
26 92 837
27 91 342
28 91 188
29 91 873
30 91 510
31 90 60
32 90 834
33 90 266
34 90 195
35 90 505
36 89 881
37 89 1000
38 89 6
39 89 697
40 89 161
41 89 78
42 88 191
43 88 629
44 87 856
45 87 288
46 87 263
47 86 263
48 86 487
49 86 629
50 86 451
51 86 419
52 85 137
53 85 73
54 85 800
55 85 159
56 84 945
57 84 681
58 84 509
59 82 6
60 82 904
61 81 325
62 81 863
63 81 234
64 81 332
65 80 496
66 80 216
67 79 684
68 79 845
69 79 626
70 79 990
71 78 298
72 78 879
73 78 250
74 77 229
75 77 305
76 77 254
77 77 716
78 77 315
79 76 266
80 75 133
81 75 548
82 75 302
83 75 624
84 75 510
85 75 447
86 74 131
87 74 243
88 74 860
89 74 709
90 73 159
91 73 157
92 73 26
93 73 732
94 72 329
95 71 22
96 71 368
97 71 769
98 71 783
99 70 603
100 70 984
101 70 767
102 70 926
103 69 78
104 69 109
105 68 676
106 68 898
107 68 277
108 67 91
109 67 329
110 67 677
111 67 805
112 66 306
113 66 854
114 66 982
115 65 617
116 65 603
117 64 357
118 64 979
119 64 431
120 63 159
121 63 302
122 63 536
123 63 366
124 63 675
125 63 468
126 63 137
127 62 45
128 62 603
129 62 595
130 62 122
131 62 797
132 61 898
133 60 156
134 60 225
135 60 350
136 60 792
137 60 661
138 60 813
139 59 414
140 59 325
141 59 63
142 58 82
143 58 892
144 58 493
145 57 328
146 57 266
147 57 568
148 57 83
149 57 289
150 57 253
151 57 291
152 57 608
153 56 248
154 56 808
155 56 904
156 56 484
157 56 303
158 56 642
159 56 804
160 55 974
161 55 681
162 54 134
163 54 154
164 53 40
165 53 717
166 53 791
167 52 236
168 52 167
169 52 513
170 51 175
171 51 931
172 51 947
173 51 343
174 50 155
175 50 866
176 50 350
177 50 134
178 50 582
179 50 566
180 50 890
181 49 231
182 48 959
183 48 59
184 48 376
185 48 22
186 46 301
187 46 455
188 46 753
189 46 248
190 46 850
191 46 83
192 46 565
193 45 727
194 45 174
195 45 766
196 45 419
197 45 915
198 45 88
199 45 24
200 44 819
201 44 535
202 43 484
203 43 525
204 42 579
205 42 512
206 42 24
207 42 259
208 42 301
209 42 315
210 41 250
211 41 399
212 41 314
213 40 272
214 40 864
215 40 509
216 40 896
217 39 195
218 38 232
219 38 571
220 38 381
221 38 156
222 38 192
223 37 79
224 37 335
225 37 748
226 37 983
227 36 816
228 36 399
229 36 520
230 36 823
231 34 626
232 34 7
233 34 702
234 34 402
235 34 551
236 34 956
237 34 718
238 33 941
239 32 701
240 32 637
241 31 684
242 31 918
243 30 674
244 30 76
245 29 911
246 29 118
247 29 530
248 29 633
249 28 447
250 28 801
251 27 998
252 27 355
253 26 117
254 26 16
255 26 991
256 25 676
257 25 503
258 25 64
259 25 913
260 24 182
261 23 464
262 23 344
263 23 573
264 22 478
265 22 691
266 22 258
267 21 859
268 21 614
269 20 637
270 20 409
271 20 896
272 20 388
273 19 777
274 19 444
275 19 480
276 19 85
277 18 228
278 18 741
279 18 3
280 17 450
281 17 559
282 17 966
283 17 478
284 16 400
285 16 559
286 15 932
287 15 442
288 14 796
289 14 351
290 14 708
291 14 406
292 13 368
293 13 442
294 13 620
295 13 868
296 12 146
297 12 20
298 12 539
299 12 256
300 12 22
